C
 1.0000000000000000
     2.5243722088359747    0.0000000000000000    0.0000000000000000
     1.2621856044179873    2.1861695954339861    0.0000000000000000
     0.0000000000000000    0.0000000000000000   12.3668427660417830
   C
  12
Direct
  0.0000000000000000  0.0000000000000000  0.9375000000000000
  0.0000000000000000  0.0000000000000001  0.0625000000000000
  0.3333333333333333  0.3333333333333335  0.2708333333333333
  0.3333333333333333  0.3333333333333335  0.3958333333333333
  0.6666666666666666  0.6666666666666667  0.1041666666666666
  0.6666666666666666  0.6666666666666667  0.2291666666666666
  0.0000000000000000  0.0000000000000000  0.4375000000000000
  0.0000000000000000  0.0000000000000001  0.5625000000000000
  0.6666666666666666  0.6666666666666667  0.7708333333333334
  0.6666666666666666  0.6666666666666667  0.8958333333333334
  0.3333333333333333  0.3333333333333335  0.6041666666666666
  0.3333333333333333  0.3333333333333335  0.7291666666666667
